(set-option :print-success false)
(set-logic QF_UF)
(declare-sort x28 0)
(declare-sort x44 0)
(declare-fun x30 () x44)
(declare-fun x138 () x44)
(declare-fun x60 () x44)
(declare-fun x90 () x44)
(declare-fun x1 (x44 x44) x44)
(declare-fun x150 (x44 x44) x44)
(declare-fun x79 () x44)
(assert (let ((x74 (x1 x90 x138)) (x92 (x1 x138 x90)) (x131 (x1 x138 x79)) (x10 (x1 x138 x138)) (x8 (x1 x30 x79)) (x154 (x1 x30 x138)) (x121 (x1 x60 x60)) (x130 (x1 x60 x30)) (x158 (x1 x30 x90)) (x113 (x1 x90 x60)) (x107 (x1 x30 x30)) (x18 (x1 x90 x79)) (x128 (x1 x30 x60)) (x27 (x1 x79 x30)) (x26 (x1 x79 x79)) (x48 (x1 x79 x138)) (x15 (x1 x79 x60)) (x43 (x1 x138 x60)) (x98 (x1 x60 x138)) (x93 (x1 x90 x30)) (x132 (x1 x138 x30)) (x62 (x1 x79 x90)) (x109 (x1 x90 x90)) (x116 (x1 x60 x79)) (x51 (x1 x60 x90))) (let ((x91 (= x79 x109)) (x89 (= x138 x116)) (x94 (= x79 x121)) (x86 (= x138 x158)) (x106 (= x158 x30)) (x35 (= x132 x138)) (x16 (= x74 x60)) (x84 (= x30 x113)) (x41 (= x130 x60)) (x124 (= x62 x30)) (x67 (= x74 x79)) (x151 (= x90 x10)) (x133 (= x30 x48)) (x101 (= x98 x60)) (x34 (= x27 x90)) (x149 (= x79 x113)) (x125 (= x79 x116)) (x71 (= x79 x43)) (x129 (= x138 x26)) (x73 (= x60 x48)) (x135 (= x90 x26)) (x55 (= x90 x121)) (x24 (= x138 x18)) (x40 (= x79 x98)) (x78 (= x113 x90)) (x37 (= x116 x90)) (x80 (= x90 x131)) (x145 (= x90 x74)) (x13 (= x18 x60)) (x21 (= x109 x90)) (x85 (= x8 x30)) (x22 (= x98 x30)) (x56 (= x60 x109)) (x117 (= x18 x79)) (x64 (= x62 x79)) (x45 (= x154 x79)) (x12 (= x51 x138)) (x134 (= x30 x15)) (x7 (= x128 x30)) (x50 (= x90 x43)) (x114 (= x116 x30)) (x76 (= x48 x90)) (x141 (= x30 x107)) (x144 (= x92 x90)) (x111 (= x48 x138)) (x33 (= x154 x90)) (x82 (= x30 x10)) (x147 (= x30 x130)) (x69 (= x79 x51)) (x49 (= x92 x138)) (x103 (= x113 x138)) (x59 (= x90 x98)) (x104 (= x60 x128)) (x148 (= x121 x138)) (x66 (= x60 x15)) (x123 (= x26 x60)) (x127 (= x79 x26)) (x122 (= x93 x30)) (x32 (= x79 x8)) (x99 (= x116 x60)) (x61 (= x109 x30)) (x112 (= x43 x30)) (x54 (= x113 x60)) (x108 (= x132 x90)) (x70 (= x51 x30)) (x142 (= x158 x60)) (x102 (= x30 x26)) (x6 (= x62 x60)) (x118 (= x107 x60)) (x77 (= x74 x138)) (x146 (= x128 x138)) (x57 (= x79 x10)) (x47 (= x79 x107)) (x5 (= x8 x60)) (x38 (= x30 x132)) (x25 (= x27 x79)) (x53 (= x60 x92)) (x126 (= x131 x30)) (x140 (= x90 x158)) (x143 (= x30 x18)) (x11 (= x62 x90)) (x9 (= x79 x15)) (x2 (= x60 x93)) (x97 (= x60 x27)) (x68 (= x92 x79)) (x19 (= x15 x138)) (x95 (= x138 x107)) (x115 (= x30 x92)) (x52 (= x138 x27)) (x42 (= x131 x60)) (x58 (= x138 x98)) (x29 (= x79 x132)) (x4 (= x90 x51)) (x156 (= x60 x154)) (x20 (= x130 x90)) (x119 (= x121 x30)) (x136 (= x154 x138)) (x72 (= x128 x90)) (x100 (= x130 x79)) (x81 (= x90 x107)) (x105 (= x74 x30)) (x14 (= x128 x79)) (x63 (= x138 x93)) (x65 (= x30 x154)) (x87 (= x121 x60)) (x88 (= x138 x62)) (x23 (= x90 x15)) (x157 (= x8 x90)) (x120 (= x131 x79)) (x155 (= x138 x10)) (x46 (= x138 x131)) (x31 (= x10 x60)) (x137 (= x79 x93)) (x36 (= x60 x132)) (x152 (= x60 x43)) (x3 (= x79 x48)) (x159 (= x90 x93)) (x17 (= x51 x60)) (x153 (= x109 x138)) (x139 (= x138 x43)) (x83 (= x130 x138)) (x96 (= x30 x27)) (x110 (= x8 x138)) (x75 (= x18 x90)) (x39 (= x158 x79))) (and (and (and (and (and (and (and (or (or (or x100 (or x137 x47)) x25) x29) (or (or (or x14 (or x39 x47)) x32) x45)) (and (and (or (or x5 (or (or x142 x118) x104)) x156) (or (or x97 (or (or x118 x2) x41)) x36)) (and (and (or x33 (or x157 (or (or x81 x140) x72))) (or (or (or (or x81 x159) x20) x34) x108)) (and (or (or x96 (or x147 (or x122 x141))) x38) (or (or x85 (or (or x106 x141) x7)) x65))))) (and (or (or (or x146 (or x95 x86)) x110) x136) (or (or x52 (or (or x63 x95) x83)) x35))) (and (and (or (or x24 (or x103 (or x153 x63))) x77) (or (or (or (or x86 x153) x12) x88) x49)) (and (and (and (or (or x6 (or (or x56 x142) x17)) x53) (or (or (or (or x56 x2) x54) x13) x16)) (and (and (or (or (or x70 (or x106 x61)) x124) x115) (or (or (or x84 (or x122 x61)) x143) x105)) (and (or x145 (or x75 (or x78 (or x21 x159)))) (or x144 (or (or x4 (or x21 x140)) x11))))) (and (or x67 (or x117 (or (or x137 x91) x149))) (or x68 (or (or (or x91 x39) x69) x64)))))) (and (and (or (or (or x148 (or x103 x146)) x19) x139) (or (or x89 (or (or x12 x83) x148)) x58)) (and (and (and (and (or (or x23 (or (or x72 x78) x55)) x50) (or (or (or x55 (or x20 x4)) x37) x59)) (and (or x112 (or (or (or x7 x84) x119) x134)) (or (or (or (or x70 x147) x119) x114) x22))) (and (or x101 (or (or (or x17 x41) x87) x99)) (or (or x66 (or (or x104 x54) x87)) x152))) (and (or (or (or (or x14 x149) x94) x9) x71) (or (or (or x94 (or x100 x69)) x125) x40))))) (and (and (or (or (or x19 (or x88 x52)) x129) x111) (or x46 (or x129 (or (or x110 x24) x89)))) (and (and (and (or x73 (or x123 (or x66 (or x6 x97)))) (or (or (or x99 (or x5 x13)) x123) x42)) (and (and (or x76 (or x135 (or (or x34 x11) x23))) (or (or x135 (or x37 (or x75 x157))) x80)) (and (or x133 (or x102 (or x134 (or x96 x124)))) (or x126 (or (or x114 (or x85 x143)) x102))))) (and (or (or (or x9 (or x64 x25)) x127) x3) (or x120 (or x127 (or x125 (or x32 x117)))))))) (and (and (or x155 (or (or (or x77 x136) x58) x111)) (or x155 (or x46 (or (or x35 x49) x139)))) (and (and (or (or (or (or x29 x68) x71) x120) x57) (or x57 (or x3 (or (or x45 x67) x40)))) (and (and (or x31 (or (or (or x16 x156) x101) x73)) (or (or (or (or x53 x36) x152) x42) x31)) (and (and (or x82 (or (or (or x65 x105) x22) x133)) (or x82 (or (or x112 (or x115 x38)) x126))) (and (or (or (or (or x145 x33) x59) x76) x151) (or (or x80 (or x50 (or x108 x144))) x151))))))))))
(assert (and (and (and (not (= x60 (x1 x60 x60))) (and (not (= (x1 x30 x30) x30)) (not (= x90 (x1 x90 x90))))) (not (= (x1 x79 x79) x79))) (not (= x138 (x1 x138 x138)))))
(assert (or (and (not (= x138 (x1 (x1 x138 x138) x138))) (and (not (= (x1 (x1 x79 x138) x79) x138)) (and (and (not (= x138 (x1 (x1 x90 x138) x90))) (not (= (x1 (x1 x30 x138) x30) x138))) (not (= (x1 (x1 x60 x138) x60) x138))))) (or (or (or (and (and (and (and (not (= x30 (x1 (x1 x90 x30) x90))) (not (= x30 (x1 (x1 x30 x30) x30)))) (not (= x30 (x1 (x1 x60 x30) x60)))) (not (= (x1 (x1 x79 x30) x79) x30))) (not (= x30 (x1 (x1 x138 x30) x138)))) (and (and (not (= x90 (x1 (x1 x79 x90) x79))) (and (and (not (= x90 (x1 (x1 x30 x90) x30))) (not (= (x1 (x1 x90 x90) x90) x90))) (not (= x90 (x1 (x1 x60 x90) x60))))) (not (= x90 (x1 (x1 x138 x90) x138))))) (and (and (not (= x60 (x1 (x1 x79 x60) x79))) (and (and (not (= x60 (x1 (x1 x90 x60) x90))) (not (= (x1 (x1 x30 x60) x30) x60))) (not (= (x1 (x1 x60 x60) x60) x60)))) (not (= (x1 (x1 x138 x60) x138) x60)))) (and (and (not (= (x1 (x1 x79 x79) x79) x79)) (and (and (not (= x79 (x1 (x1 x30 x79) x30))) (not (= x79 (x1 (x1 x90 x79) x90)))) (not (= (x1 (x1 x60 x79) x60) x79)))) (not (= (x1 (x1 x138 x79) x138) x79))))))
(assert (or (or (and (not (= (x1 x79 (x1 x79 x138)) x138)) (and (and (not (= x60 (x1 x79 (x1 x79 x60)))) (and (not (= x30 (x1 x79 (x1 x79 x30)))) (not (= x90 (x1 x79 (x1 x79 x90)))))) (not (= (x1 x79 (x1 x79 x79)) x79)))) (or (or (and (not (= (x1 x90 (x1 x90 x138)) x138)) (and (not (= x79 (x1 x90 (x1 x90 x79)))) (and (not (= x60 (x1 x90 (x1 x90 x60)))) (and (not (= x30 (x1 x90 (x1 x90 x30)))) (not (= x90 (x1 x90 (x1 x90 x90)))))))) (and (not (= (x1 x30 (x1 x30 x138)) x138)) (and (not (= x79 (x1 x30 (x1 x30 x79)))) (and (and (not (= x30 (x1 x30 (x1 x30 x30)))) (not (= (x1 x30 (x1 x30 x90)) x90))) (not (= (x1 x30 (x1 x30 x60)) x60)))))) (and (not (= x138 (x1 x60 (x1 x60 x138)))) (and (not (= (x1 x60 (x1 x60 x79)) x79)) (and (not (= x60 (x1 x60 (x1 x60 x60)))) (and (not (= x90 (x1 x60 (x1 x60 x90)))) (not (= (x1 x60 (x1 x60 x30)) x30)))))))) (and (not (= x138 (x1 x138 (x1 x138 x138)))) (and (and (and (not (= (x1 x138 (x1 x138 x90)) x90)) (not (= (x1 x138 (x1 x138 x30)) x30))) (not (= (x1 x138 (x1 x138 x60)) x60))) (not (= (x1 x138 (x1 x138 x79)) x79))))))
(assert (let ((x51 (x1 x138 x138)) (x74 (x1 x138 x90)) (x118 (x1 x60 x90)) (x8 (x1 x30 x138)) (x141 (x1 x30 x30)) (x81 (x1 x90 x90)) (x159 (x1 x79 x60)) (x106 (x1 x79 x30)) (x122 (x1 x60 x138)) (x128 (x1 x30 x79)) (x158 (x1 x30 x60)) (x95 (x1 x60 x79)) (x27 (x1 x90 x138)) (x109 (x1 x79 x79)) (x61 (x1 x79 x90)) (x21 (x1 x138 x79)) (x47 (x1 x60 x60)) (x132 (x1 x60 x30)) (x140 (x1 x138 x60)) (x154 (x1 x90 x30)) (x130 (x1 x90 x79)) (x93 (x1 x90 x60)) (x107 (x1 x30 x90)) (x18 (x1 x138 x30)) (x113 (x1 x79 x138))) (and (or (or (= (x1 x138 x51) x138) (= (x1 x51 x138) x138)) (or (or (= x79 (x1 x21 x138)) (= (x1 x138 x21) x79)) (or (or (or (= x30 (x1 x18 x138)) (= x30 (x1 x138 x18))) (or (= x90 (x1 x138 x74)) (= (x1 x74 x138) x90))) (or (= (x1 x140 x138) x60) (= (x1 x138 x140) x60))))) (and (or (or (or (or (= x60 (x1 x159 x79)) (= (x1 x79 x159) x60)) (or (or (= (x1 x106 x79) x30) (= (x1 x79 x106) x30)) (or (= (x1 x61 x79) x90) (= (x1 x79 x61) x90)))) (or (= (x1 x109 x79) x79) (= (x1 x79 x109) x79))) (or (= x138 (x1 x79 x113)) (= (x1 x113 x79) x138))) (and (or (or (or (= (x1 x95 x60) x79) (= x79 (x1 x60 x95))) (or (or (= x60 (x1 x60 x47)) (= x60 (x1 x47 x60))) (or (or (= (x1 x118 x60) x90) (= x90 (x1 x60 x118))) (or (= (x1 x60 x132) x30) (= x30 (x1 x132 x60)))))) (or (= x138 (x1 x122 x60)) (= (x1 x60 x122) x138))) (and (or (or (or (= (x1 x90 x130) x79) (= (x1 x130 x90) x79)) (or (or (or (= x90 (x1 x81 x90)) (= x90 (x1 x90 x81))) (or (= (x1 x154 x90) x30) (= x30 (x1 x90 x154)))) (or (= (x1 x90 x93) x60) (= (x1 x93 x90) x60)))) (or (= (x1 x90 x27) x138) (= x138 (x1 x27 x90)))) (or (or (= (x1 x30 x8) x138) (= x138 (x1 x8 x30))) (or (or (or (or (= (x1 x30 x141) x30) (= (x1 x141 x30) x30)) (or (= x90 (x1 x107 x30)) (= x90 (x1 x30 x107)))) (or (= x60 (x1 x30 x158)) (= (x1 x158 x30) x60))) (or (= x79 (x1 x128 x30)) (= (x1 x30 x128) x79))))))))))
(assert (let ((x8 (x1 x79 x79)) (x107 (x1 x30 x30)) (x154 (x1 x138 x138)) (x128 (x1 x60 x60)) (x158 (x1 x90 x90))) (let ((x27 (= x138 x154)) (x93 (= x60 x128)) (x130 (= x79 x8)) (x141 (= x30 x107)) (x81 (= x158 x90))) (and (or (or x27 (or (or (= x138 x128) (or (= x138 x107) (= x158 x138))) (= x138 x8))) (or (or (= x79 (x1 x138 x79)) (or (= x60 (x1 x138 x60)) (or (= x30 (x1 x138 x30)) (= (x1 x138 x90) x90)))) x27)) (and (and (and (or (or (= x138 (x1 x90 x138)) (or (= (x1 x90 x79) x79) (or (= (x1 x90 x60) x60) (or (= (x1 x90 x30) x30) x81)))) (or (or (= x8 x90) (or (= x90 x128) (or (= x90 x107) x81))) (= x90 x154))) (or (or (or (= x30 x8) (or (or x141 (= x30 x158)) (= x128 x30))) (= x30 x154)) (or (= x138 (x1 x30 x138)) (or (or (or x141 (= (x1 x30 x90) x90)) (= x60 (x1 x30 x60))) (= (x1 x30 x79) x79))))) (or (or (= x154 x60) (or (= x60 x8) (or (or (= x158 x60) (= x60 x107)) x93))) (or (or (or x93 (or (= x30 (x1 x60 x30)) (= (x1 x60 x90) x90))) (= x79 (x1 x60 x79))) (= x138 (x1 x60 x138))))) (or (or (= x79 x154) (or (or (= x128 x79) (or (= x107 x79) (= x158 x79))) x130)) (or (= x138 (x1 x79 x138)) (or x130 (or (or (= x30 (x1 x79 x30)) (= x90 (x1 x79 x90))) (= x60 (x1 x79 x60)))))))))))
(assert (not (and (and (and (= (x1 x138 x60) x30) (and (and (and (= (x1 x79 x138) x79) (and (= x60 (x1 x79 x79)) (and (and (and (= x90 (x1 x79 x30)) (and (= (x1 x60 x138) x138) (and (= (x1 x60 x79) x30) (and (= (x1 x60 x60) x79) (and (and (= (x1 x60 x30) x60) (and (and (and (= (x1 x90 x60) x60) (and (= x79 (x1 x90 x90)) (and (= (x1 x90 x30) x30) (and (and (and (and (= x60 (x1 x30 x90)) (= x138 (x1 x30 x30))) (= x90 (x1 x30 x60))) (= (x1 x30 x79) x79)) (= (x1 x30 x138) x30))))) (= (x1 x90 x79) x138)) (= x90 (x1 x90 x138)))) (= x90 (x1 x60 x90))))))) (= (x1 x79 x90) x30)) (= x138 (x1 x79 x60))))) (= (x1 x138 x30) x79)) (= (x1 x138 x90) x138))) (= x90 (x1 x138 x79))) (= x60 (x1 x138 x138)))))
(assert (let ((x128 (x1 x79 x79)) (x8 (x1 x138 x138)) (x141 (x1 x30 x30)) (x107 (x1 x90 x90)) (x158 (x1 x60 x60))) (or (= (x1 x8 x8) x138) (or (or (or (= (x1 x107 x107) x90) (= x30 (x1 x141 x141))) (= (x1 x158 x158) x60)) (= (x1 x128 x128) x79)))))
(assert (let ((x128 (x1 x79 x79)) (x8 (x1 x138 x138)) (x158 (x1 x60 x60)) (x107 (x1 x90 x90)) (x141 (x1 x30 x30))) (or (and (not (= x138 x8)) (and (not (= x128 x138)) (and (and (not (= x141 x138)) (not (= x138 x107))) (not (= x138 x158))))) (or (or (and (not (= x60 x8)) (and (and (and (not (= x60 x141)) (not (= x107 x60))) (not (= x60 x158))) (not (= x60 x128)))) (or (and (not (= x8 x90)) (and (and (not (= x158 x90)) (and (not (= x107 x90)) (not (= x90 x141)))) (not (= x128 x90)))) (and (and (and (not (= x30 x158)) (and (not (= x30 x141)) (not (= x107 x30)))) (not (= x128 x30))) (not (= x30 x8))))) (and (not (= x79 x8)) (and (not (= x128 x79)) (and (not (= x79 x158)) (and (not (= x141 x79)) (not (= x79 x107))))))))))
(assert (let ((x93 (x1 x60 x90)) (x81 (x1 x90 x90)) (x118 (x1 x90 x60)) (x18 (x1 x30 x138)) (x107 (x1 x90 x30)) (x106 (x1 x30 x79)) (x74 (x1 x90 x138)) (x113 (x1 x138 x79)) (x158 (x1 x60 x30)) (x27 (x1 x138 x90)) (x159 (x1 x60 x79)) (x47 (x1 x60 x60)) (x128 (x1 x79 x30)) (x130 (x1 x79 x90)) (x141 (x1 x30 x30)) (x122 (x1 x138 x60)) (x8 (x1 x138 x30)) (x132 (x1 x30 x60)) (x95 (x1 x79 x60)) (x140 (x1 x60 x138)) (x61 (x1 x90 x79)) (x21 (x1 x79 x138)) (x109 (x1 x79 x79)) (x154 (x1 x30 x90)) (x51 (x1 x138 x138))) (and (and (and (not (= x113 x51)) (and (and (not (= x113 x122)) (and (not (= x51 x27)) (and (and (and (and (and (not (= x8 x122)) (not (= x27 x8))) (not (= x8 x113))) (not (= x8 x51))) (not (= x27 x122))) (not (= x113 x27))))) (not (= x51 x122)))) (and (and (and (not (= x140 x159)) (and (and (not (= x47 x159)) (and (and (not (= x93 x159)) (and (and (and (and (not (= x93 x158)) (not (= x47 x158))) (not (= x159 x158))) (not (= x140 x158))) (not (= x93 x47)))) (not (= x140 x93)))) (not (= x47 x140)))) (and (and (not (= x74 x61)) (and (not (= x118 x74)) (and (not (= x118 x61)) (and (and (and (not (= x118 x81)) (and (and (and (not (= x107 x81)) (not (= x118 x107))) (not (= x107 x61))) (not (= x74 x107)))) (not (= x61 x81))) (not (= x74 x81)))))) (and (and (and (not (= x106 x132)) (and (not (= x154 x18)) (and (and (and (and (and (not (= x141 x154)) (not (= x141 x132))) (not (= x141 x106))) (not (= x141 x18))) (not (= x154 x132))) (not (= x154 x106))))) (not (= x132 x18))) (not (= x18 x106))))) (and (not (= x109 x21)) (and (and (not (= x95 x109)) (and (and (and (not (= x95 x130)) (and (and (and (not (= x128 x130)) (not (= x95 x128))) (not (= x109 x128))) (not (= x128 x21)))) (not (= x109 x130))) (not (= x21 x130)))) (not (= x95 x21)))))) (and (and (not (= x51 x21)) (and (not (= x140 x51)) (and (and (and (not (= x74 x21)) (and (and (and (and (not (= x18 x140)) (not (= x18 x74))) (not (= x18 x21))) (not (= x51 x18))) (not (= x140 x74)))) (not (= x51 x74))) (not (= x21 x140))))) (and (and (and (and (not (= x47 x122)) (and (and (and (not (= x118 x95)) (and (and (not (= x132 x122)) (and (not (= x132 x95)) (and (not (= x47 x132)) (not (= x118 x132))))) (not (= x118 x47)))) (not (= x118 x122))) (not (= x95 x47)))) (not (= x95 x122))) (and (and (and (and (not (= x128 x158)) (and (and (not (= x107 x128)) (and (and (not (= x8 x141)) (and (not (= x128 x141)) (and (not (= x158 x141)) (not (= x107 x141))))) (not (= x107 x158)))) (not (= x8 x107)))) (not (= x158 x8))) (not (= x128 x8))) (and (not (= x130 x27)) (and (not (= x93 x27)) (and (not (= x93 x130)) (and (and (and (and (not (= x27 x154)) (and (not (= x130 x154)) (and (not (= x93 x154)) (not (= x154 x81))))) (not (= x93 x81))) (not (= x81 x130))) (not (= x81 x27)))))))) (and (not (= x113 x109)) (and (and (not (= x159 x109)) (and (not (= x61 x113)) (and (and (not (= x61 x159)) (and (not (= x113 x106)) (and (and (not (= x61 x106)) (not (= x106 x159))) (not (= x109 x106))))) (not (= x61 x109))))) (not (= x113 x159)))))))))
(assert (and (= (x1 x79 x60) x138) (and (and (= x90 (x1 x138 x79)) (= x30 (x1 x60 x79))) (= (x1 x79 x79) x60))))
(assert (or (= (x1 x138 (x1 x138 x138)) x138) (or (= (x1 x79 (x1 x79 x79)) x79) (or (= x60 (x1 x60 (x1 x60 x60))) (or (= (x1 x30 (x1 x30 x30)) x30) (= (x1 x90 (x1 x90 x90)) x90))))))
(assert (or (= x138 (x1 (x1 x138 x138) x138)) (or (= (x1 (x1 x79 x79) x79) x79) (or (= x60 (x1 (x1 x60 x60) x60)) (or (= x90 (x1 (x1 x90 x90) x90)) (= x30 (x1 (x1 x30 x30) x30)))))))
(assert (let ((x70 (x1 x90 x90)) (x4 (x1 x79 x90)) (x17 (x1 x79 x60)) (x2 (x1 x30 x90)) (x62 (x1 x30 x30)) (x103 (x1 x138 x79)) (x137 (x1 x60 x30)) (x20 (x1 x90 x79)) (x41 (x1 x60 x79)) (x86 (x1 x138 x30)) (x104 (x1 x60 x138)) (x121 (x1 x90 x138)) (x54 (x1 x138 x60)) (x15 (x1 x60 x60)) (x34 (x1 x138 x138)) (x146 (x1 x79 x138)) (x56 (x1 x30 x60)) (x84 (x1 x90 x60)) (x83 (x1 x79 x79)) (x119 (x1 x60 x90)) (x39 (x1 x30 x79)) (x142 (x1 x90 x30)) (x116 (x1 x138 x90)) (x63 (x1 x30 x138)) (x91 (x1 x79 x30))) (let ((x8 (not (= x30 x137))) (x47 (not (= x30 x20))) (x35 (not (= x86 x138))) (x55 (not (= x90 x84))) (x153 (not (= x142 x90))) (x125 (not (= x60 x54))) (x107 (not (= x142 x30))) (x140 (not (= x30 x103))) (x95 (not (= x17 x30))) (x22 (not (= x39 x79))) (x7 (not (= x70 x90))) (x19 (not (= x60 x34))) (x59 (not (= x54 x79))) (x96 (not (= x90 x63))) (x18 (not (= x54 x30))) (x94 (not (= x41 x90))) (x87 (not (= x90 x91))) (x74 (not (= x104 x30))) (x131 (not (= x84 x60))) (x92 (not (= x90 x62))) (x9 (not (= x60 x63))) (x99 (not (= x60 x17))) (x115 (not (= x56 x79))) (x129 (not (= x70 x79))) (x58 (not (= x103 x138))) (x118 (not (= x4 x30))) (x12 (not (= x90 x83))) (x75 (not (= x137 x60))) (x97 (not (= x15 x60))) (x108 (not (= x17 x79))) (x152 (not (= x62 x138))) (x93 (not (= x84 x30))) (x141 (not (= x62 x30))) (x61 (not (= x30 x86))) (x5 (not (= x4 x60))) (x117 (not (= x60 x121))) (x127 (not (= x60 x104))) (x149 (not (= x90 x17))) (x23 (not (= x62 x60))) (x16 (not (= x70 x138))) (x26 (not (= x142 x60))) (x110 (not (= x62 x79))) (x132 (not (= x30 x39))) (x66 (not (= x39 x60))) (x33 (not (= x79 x116))) (x71 (not (= x91 x138))) (x130 (not (= x15 x30))) (x145 (not (= x79 x121))) (x124 (not (= x116 x90))) (x11 (not (= x34 x90))) (x48 (not (= x60 x2))) (x36 (not (= x146 x79))) (x49 (not (= x63 x138))) (x126 (not (= x84 x79))) (x51 (not (= x30 x34))) (x88 (not (= x146 x60))) (x73 (not (= x56 x138))) (x25 (not (= x60 x83))) (x69 (not (= x4 x90))) (x135 (not (= x60 x119))) (x148 (not (= x90 x86))) (x14 (not (= x90 x20))) (x112 (not (= x79 x119))) (x42 (not (= x138 x142))) (x64 (not (= x60 x86))) (x78 (not (= x119 x90))) (x109 (not (= x30 x116))) (x120 (not (= x39 x138))) (x106 (not (= x30 x83))) (x157 (not (= x60 x70))) (x46 (not (= x138 x121))) (x65 (not (= x79 x15))) (x29 (not (= x138 x84))) (x31 (not (= x119 x138))) (x45 (not (= x4 x138))) (x155 (not (= x138 x34))) (x156 (not (= x138 x2))) (x53 (not (= x79 x34))) (x154 (not (= x56 x30))) (x151 (not (= x79 x103))) (x105 (not (= x91 x79))) (x144 (not (= x79 x41))) (x139 (not (= x116 x138))) (x52 (not (= x103 x60))) (x101 (not (= x138 x137))) (x80 (not (= x86 x79))) (x143 (not (= x90 x104))) (x82 (not (= x20 x79))) (x77 (not (= x104 x138))) (x43 (not (= x90 x15))) (x89 (not (= x79 x2))) (x134 (not (= x90 x121))) (x159 (not (= x30 x63))) (x37 (not (= x56 x60))) (x32 (not (= x60 x116))) (x72 (not (= x56 x90))) (x100 (not (= x39 x90))) (x50 (not (= x83 x79))) (x136 (not (= x138 x54))) (x122 (not (= x41 x30))) (x114 (not (= x103 x90))) (x123 (not (= x60 x41))) (x98 (not (= x137 x90))) (x6 (not (= x60 x91))) (x40 (not (= x17 x138))) (x10 (not (= x63 x79))) (x27 (not (= x30 x91))) (x21 (not (= x30 x146))) (x133 (not (= x79 x4))) (x68 (not (= x138 x15))) (x85 (not (= x90 x54))) (x67 (not (= x20 x138))) (x113 (not (= x30 x121))) (x147 (not (= x90 x2))) (x13 (not (= x20 x60))) (x158 (not (= x30 x2))) (x76 (not (= x104 x79))) (x102 (not (= x90 x146))) (x81 (not (= x30 x119))) (x128 (not (= x30 x70))) (x57 (not (= x138 x83))) (x111 (not (= x146 x138))) (x38 (not (= x79 x137))) (x3 (not (= x41 x138))) (x24 (not (= x79 x142)))) (or (and (and (and (or x58 x111) (and (or x136 x77) (and (or x35 x49) (or x46 x139)))) (or x155 x155)) (and (and (and (and (or x3 x40) (and (and (or x101 x73) (or x31 x29)) (or x68 x68))) (or x136 x77)) (and (and (or x35 x49) (and (and (and (or x152 x152) (or x156 x42)) (or x101 x73)) (or x71 x120))) (and (or x46 x139) (and (or x67 x45) (and (and (or x42 x156) (or x16 x16)) (or x29 x31)))))) (and (or x58 x111) (and (or x57 x57) (and (and (or x67 x45) (or x120 x71)) (or x40 x3)))))) (or (or (or (and (and (and (or x21 x140) (and (and (or x95 x122) (and (or x118 x47) (or x132 x27))) (or x106 x106))) (and (and (and (or x159 x61) (and (and (and (or x141 x141) (or x107 x158)) (or x8 x154)) (or x27 x132))) (and (and (and (or x81 x93) (and (or x128 x128) (or x158 x107))) (or x47 x118)) (or x109 x113))) (and (and (or x95 x122) (and (and (or x81 x93) (or x8 x154)) (or x130 x130))) (or x74 x18)))) (and (or x51 x51) (and (and (or x74 x18) (and (or x61 x159) (or x109 x113))) (or x21 x140)))) (and (and (and (and (and (and (or x87 x100) (and (and (or x92 x92) (or x153 x147)) (or x72 x98))) (or x96 x148)) (and (and (and (and (or x7 x7) (or x147 x153)) (or x78 x55)) (or x14 x69)) (or x124 x134))) (and (or x85 x143) (and (and (or x43 x43) (and (or x98 x72) (or x78 x55))) (or x149 x94)))) (and (or x102 x114) (and (and (or x149 x94) (and (or x14 x69) (or x87 x100))) (or x12 x12)))) (and (or x11 x11) (and (and (or x85 x143) (and (or x124 x134) (or x148 x96))) (or x102 x114))))) (and (and (and (or x52 x88) (and (or x127 x125) (and (or x9 x64) (or x32 x117)))) (or x19 x19)) (and (and (and (or x127 x125) (and (and (and (or x131 x135) (or x75 x37)) (or x97 x97)) (or x123 x99))) (and (and (or x64 x9) (and (and (or x37 x75) (and (or x26 x48) (or x23 x23))) (or x66 x6))) (and (or x117 x32) (and (or x13 x5) (and (and (or x157 x157) (or x26 x48)) (or x131 x135)))))) (and (or x52 x88) (and (and (and (or x66 x6) (or x13 x5)) (or x99 x123)) (or x25 x25)))))) (and (and (and (or x151 x36) (and (or x50 x50) (and (or x144 x108) (and (or x82 x133) (or x22 x105))))) (and (and (and (and (or x133 x82) (and (and (or x24 x89) (or x129 x129)) (or x126 x112))) (or x145 x33)) (and (and (or x105 x22) (and (and (or x89 x24) (or x110 x110)) (or x38 x115))) (or x80 x10))) (and (or x59 x76) (and (or x108 x144) (and (or x65 x65) (and (or x115 x38) (or x112 x126))))))) (and (and (and (or x76 x59) (and (or x145 x33) (or x10 x80))) (or x36 x151)) (or x53 x53))))))))
(assert (and (and (not (= x60 x138)) (and (and (not (= x138 x90)) (and (not (= x90 x79)) (and (not (= x90 x60)) (and (and (not (= x30 x79)) (and (not (= x60 x30)) (not (= x90 x30)))) (not (= x30 x138)))))) (not (= x79 x60)))) (not (= x138 x79))))
(assert (or (or (or (and (not (= (x1 (x1 x60 x138) x60) x138)) (and (and (not (= x60 (x1 (x1 x60 x60) x60))) (and (not (= x90 (x1 (x1 x60 x90) x60))) (not (= (x1 (x1 x60 x30) x60) x30)))) (not (= x79 (x1 (x1 x60 x79) x60))))) (or (and (not (= (x1 (x1 x30 x138) x30) x138)) (and (and (and (not (= x90 (x1 (x1 x30 x90) x30))) (not (= x30 (x1 (x1 x30 x30) x30)))) (not (= x60 (x1 (x1 x30 x60) x30)))) (not (= x79 (x1 (x1 x30 x79) x30))))) (and (not (= (x1 (x1 x90 x138) x90) x138)) (and (and (and (not (= (x1 (x1 x90 x90) x90) x90)) (not (= x30 (x1 (x1 x90 x30) x90)))) (not (= x60 (x1 (x1 x90 x60) x90)))) (not (= x79 (x1 (x1 x90 x79) x90))))))) (and (not (= (x1 (x1 x79 x138) x79) x138)) (and (not (= x79 (x1 (x1 x79 x79) x79))) (and (and (not (= (x1 (x1 x79 x90) x79) x90)) (not (= x30 (x1 (x1 x79 x30) x79)))) (not (= x60 (x1 (x1 x79 x60) x79))))))) (and (and (and (and (not (= (x1 (x1 x138 x30) x138) x30)) (not (= (x1 (x1 x138 x90) x138) x90))) (not (= (x1 (x1 x138 x60) x138) x60))) (not (= (x1 (x1 x138 x79) x138) x79))) (not (= x138 (x1 (x1 x138 x138) x138))))))
(assert (not (and (and (and (= x60 (x1 x138 x60)) (and (and (and (= x79 (x1 x79 x138)) (and (and (= (x1 x79 x60) x138) (and (and (and (and (= (x1 x60 x79) x30) (and (and (and (and (= (x1 x90 x138) x138) (and (= (x1 x90 x79) x79) (and (= x30 (x1 x90 x60)) (and (= (x1 x90 x90) x60) (and (and (= (x1 x30 x138) x60) (and (= (x1 x30 x79) x138) (and (= (x1 x30 x60) x90) (and (= (x1 x30 x90) x30) (= x79 (x1 x30 x30)))))) (= (x1 x90 x30) x90)))))) (= (x1 x60 x30) x60)) (= x138 (x1 x60 x90))) (= (x1 x60 x60) x79))) (= x90 (x1 x60 x138))) (= x30 (x1 x79 x30))) (= (x1 x79 x90) x90))) (= x60 (x1 x79 x79)))) (= (x1 x138 x30) x138)) (= x79 (x1 x138 x90)))) (= x90 (x1 x138 x79))) (= (x1 x138 x138) x30))))
(assert (let ((x107 (x1 x30 x30)) (x154 (x1 x138 x138)) (x8 (x1 x79 x79)) (x158 (x1 x90 x90)) (x128 (x1 x60 x60))) (let ((x27 (= x154 x138)) (x130 (= x79 x8)) (x93 (= x128 x60)) (x141 (= x30 x107)) (x81 (= x90 x158))) (and (and (and (and (or (or (or (= x90 x8) (or (= x128 x90) (or x81 (= x90 x107)))) (= x154 x90)) (or (or (= x79 (x1 x79 x90)) (or (or x81 (= (x1 x30 x90) x30)) (= (x1 x60 x90) x60))) (= x138 (x1 x138 x90)))) (or (or (or (= x8 x30) (or (or (= x158 x30) x141) (= x30 x128))) (= x30 x154)) (or (or (or (or (= x90 (x1 x90 x30)) x141) (= x60 (x1 x60 x30))) (= (x1 x79 x30) x79)) (= x138 (x1 x138 x30))))) (or (or (or (= x8 x60) (or (or (= x107 x60) (= x60 x158)) x93)) (= x60 x154)) (or (= x138 (x1 x138 x60)) (or (or (or (= (x1 x90 x60) x90) (= (x1 x30 x60) x30)) x93) (= x79 (x1 x79 x60)))))) (or (or (or x130 (or (= x128 x79) (or (= x79 x107) (= x158 x79)))) (= x79 x154)) (or (or x130 (or (= x60 (x1 x60 x79)) (or (= (x1 x30 x79) x30) (= x90 (x1 x90 x79))))) (= x138 (x1 x138 x79))))) (or (or x27 (or (= x8 x138) (or (or (= x138 x107) (= x138 x158)) (= x128 x138)))) (or (or (or (= (x1 x60 x138) x60) (or (= (x1 x90 x138) x90) (= (x1 x30 x138) x30))) (= (x1 x79 x138) x79)) x27))))))
(assert (let ((x122 (x1 x60 x138)) (x128 (x1 x30 x79)) (x132 (x1 x60 x30)) (x47 (x1 x60 x60)) (x81 (x1 x90 x90)) (x159 (x1 x79 x60)) (x61 (x1 x79 x90)) (x154 (x1 x90 x30)) (x95 (x1 x60 x79)) (x107 (x1 x30 x90)) (x118 (x1 x60 x90)) (x51 (x1 x138 x138)) (x21 (x1 x138 x79)) (x8 (x1 x30 x138)) (x130 (x1 x90 x79)) (x109 (x1 x79 x79)) (x93 (x1 x90 x60)) (x113 (x1 x79 x138)) (x18 (x1 x138 x30)) (x158 (x1 x30 x60)) (x27 (x1 x90 x138)) (x106 (x1 x79 x30)) (x140 (x1 x138 x60)) (x141 (x1 x30 x30)) (x74 (x1 x138 x90))) (or (or (or (and (not (= x138 (x1 x122 x122))) (and (and (and (not (= (x1 x132 x132) x30)) (not (= x90 (x1 x118 x118)))) (not (= x60 (x1 x47 x47)))) (not (= x79 (x1 x95 x95))))) (or (and (and (not (= (x1 x130 x130) x79)) (and (and (not (= x30 (x1 x154 x154))) (not (= (x1 x81 x81) x90))) (not (= (x1 x93 x93) x60)))) (not (= (x1 x27 x27) x138))) (and (and (and (and (not (= (x1 x107 x107) x90)) (not (= (x1 x141 x141) x30))) (not (= x60 (x1 x158 x158)))) (not (= (x1 x128 x128) x79))) (not (= (x1 x8 x8) x138))))) (and (not (= x138 (x1 x113 x113))) (and (and (and (not (= x90 (x1 x61 x61))) (not (= x30 (x1 x106 x106)))) (not (= (x1 x159 x159) x60))) (not (= x79 (x1 x109 x109)))))) (and (and (not (= (x1 x21 x21) x79)) (and (not (= x60 (x1 x140 x140))) (and (not (= x30 (x1 x18 x18))) (not (= x90 (x1 x74 x74)))))) (not (= (x1 x51 x51) x138))))))
(assert (let ((x140 (x1 x138 x79)) (x113 (x1 x90 x138)) (x158 (x1 x30 x90)) (x81 (x1 x60 x90)) (x61 (x1 x138 x30)) (x51 (not (= x138 (x1 x138 x138)))) (x93 (x1 x90 x60)) (x27 (x1 x79 x30)) (x21 (x1 x79 x138)) (x8 (x1 x60 x30)) (x132 (x1 x30 x79)) (x122 (x1 x60 x79)) (x74 (x1 x60 x138)) (x159 (x1 x30 x138)) (x128 (not (= (x1 x90 x90) x90))) (x95 (x1 x79 x60)) (x107 (x1 x90 x30)) (x47 (x1 x90 x79)) (x154 (x1 x30 x60)) (x141 (not (= x30 (x1 x30 x30)))) (x18 (x1 x138 x60)) (x130 (not (= (x1 x60 x60) x60))) (x118 (x1 x79 x90)) (x109 (x1 x138 x90)) (x106 (not (= (x1 x79 x79) x79)))) (and (and (and (and (and (or (not (= x95 x60)) (not (= x60 x122))) (and (and (or (not (= x60 x8)) (not (= x154 x60))) (or (not (= x81 x60)) (not (= x60 x93)))) (or x130 x130))) (or (not (= x60 x74)) (not (= x18 x60)))) (and (and (and (and (and (or x128 x128) (or (not (= x90 x107)) (not (= x90 x158)))) (or (not (= x81 x90)) (not (= x93 x90)))) (or (not (= x90 x47)) (not (= x118 x90)))) (or (not (= x109 x90)) (not (= x90 x113)))) (and (and (or (not (= x30 x27)) (not (= x132 x30))) (and (or (not (= x30 x154)) (not (= x8 x30))) (and (or (not (= x30 x107)) (not (= x30 x158))) (or x141 x141)))) (or (not (= x61 x30)) (not (= x159 x30)))))) (and (and (or x106 x106) (and (and (or (not (= x79 x27)) (not (= x79 x132))) (or (not (= x79 x47)) (not (= x118 x79)))) (or (not (= x95 x79)) (not (= x122 x79))))) (or (not (= x140 x79)) (not (= x79 x21))))) (and (and (and (and (or (not (= x61 x138)) (not (= x159 x138))) (or (not (= x138 x113)) (not (= x138 x109)))) (or (not (= x138 x74)) (not (= x18 x138)))) (or (not (= x140 x138)) (not (= x138 x21)))) (or x51 x51)))))
(assert (or (and (and (not (= (x1 x79 x138) x79)) (and (not (= (x1 x60 x138) x60)) (and (not (= x30 (x1 x30 x138))) (not (= x90 (x1 x90 x138)))))) (not (= (x1 x138 x138) x138))) (or (and (and (and (and (not (= x30 (x1 x30 x79))) (not (= (x1 x90 x79) x90))) (not (= (x1 x60 x79) x60))) (not (= (x1 x79 x79) x79))) (not (= x138 (x1 x138 x79)))) (or (and (not (= x138 (x1 x138 x60))) (and (and (and (not (= x90 (x1 x90 x60))) (not (= (x1 x30 x60) x30))) (not (= (x1 x60 x60) x60))) (not (= x79 (x1 x79 x60))))) (or (and (not (= (x1 x138 x90) x138)) (and (not (= x79 (x1 x79 x90))) (and (not (= x60 (x1 x60 x90))) (and (not (= (x1 x30 x90) x30)) (not (= (x1 x90 x90) x90)))))) (and (and (not (= x79 (x1 x79 x30))) (and (and (not (= x90 (x1 x90 x30))) (not (= (x1 x30 x30) x30))) (not (= x60 (x1 x60 x30))))) (not (= x138 (x1 x138 x30)))))))))
(assert (let ((x27 (= x79 (x1 x79 x30))) (x8 (= (x1 x60 x30) x60)) (x21 (= (x1 x79 x138) x79)) (x109 (= (x1 x138 x90) x138)) (x47 (= x90 (x1 x90 x79))) (x140 (= x138 (x1 x138 x79))) (x106 (= (x1 x79 x79) x79)) (x118 (= (x1 x79 x90) x79)) (x132 (= x30 (x1 x30 x79))) (x154 (= (x1 x30 x60) x30)) (x113 (= x90 (x1 x90 x138))) (x158 (= x30 (x1 x30 x90))) (x128 (= x90 (x1 x90 x90))) (x74 (= (x1 x60 x138) x60)) (x122 (= x60 (x1 x60 x79))) (x130 (= x60 (x1 x60 x60))) (x81 (= (x1 x60 x90) x60)) (x93 (= (x1 x90 x60) x90)) (x61 (= (x1 x138 x30) x138)) (x51 (= (x1 x138 x138) x138)) (x95 (= x79 (x1 x79 x60))) (x159 (= (x1 x30 x138) x30)) (x107 (= x90 (x1 x90 x30))) (x18 (= x138 (x1 x138 x60))) (x141 (= x30 (x1 x30 x30)))) (or (or (or (or (or (and x109 x113) (and x61 x159)) (and x18 x74)) (and x21 x140)) (and x51 x51)) (or (or (or (and x106 x106) (or (and x95 x122) (or (and x132 x27) (and x118 x47)))) (and x21 x140)) (or (or (and x74 x18) (or (or (and x130 x130) (or (and x93 x81) (and x154 x8))) (and x122 x95))) (or (or (or (or (and x8 x154) (or (and x141 x141) (and x107 x158))) (and x132 x27)) (and x159 x61)) (or (or (or (or (and x128 x128) (and x107 x158)) (and x93 x81)) (and x118 x47)) (and x113 x109))))))))
(assert (let ((x118 (x1 x60 x90)) (x159 (x1 x79 x60)) (x93 (x1 x90 x60)) (x61 (x1 x79 x90)) (x113 (x1 x79 x138)) (x8 (x1 x30 x138)) (x27 (x1 x90 x138)) (x47 (x1 x60 x60)) (x18 (x1 x138 x30)) (x132 (x1 x60 x30)) (x128 (x1 x30 x79)) (x95 (x1 x60 x79)) (x109 (x1 x79 x79)) (x74 (x1 x138 x90)) (x106 (x1 x79 x30)) (x21 (x1 x138 x79)) (x122 (x1 x60 x138)) (x141 (x1 x30 x30)) (x154 (x1 x90 x30)) (x130 (x1 x90 x79)) (x140 (x1 x138 x60)) (x158 (x1 x30 x60)) (x81 (x1 x90 x90)) (x107 (x1 x30 x90)) (x51 (x1 x138 x138))) (and (and (and (and (and (and (and (and (or (or (or (= x141 x60) (or (= x141 x90) (= x141 x30))) (= x79 x141)) (= x141 x138)) (or (= x107 x138) (or (= x79 x107) (or (= x107 x60) (or (= x107 x30) (= x90 x107)))))) (or (or (or (= x158 x60) (or (= x158 x90) (= x30 x158))) (= x79 x158)) (= x138 x158))) (or (or (or (= x60 x128) (or (= x128 x30) (= x128 x90))) (= x128 x79)) (= x128 x138))) (or (= x8 x138) (or (or (= x60 x8) (or (= x90 x8) (= x30 x8))) (= x8 x79)))) (and (or (= x27 x138) (or (= x79 x27) (or (or (= x27 x90) (= x27 x30)) (= x60 x27)))) (and (and (or (or (= x79 x93) (or (= x60 x93) (or (= x93 x90) (= x30 x93)))) (= x138 x93)) (and (or (= x138 x81) (or (= x79 x81) (or (= x60 x81) (or (= x81 x30) (= x81 x90))))) (or (= x154 x138) (or (= x154 x79) (or (= x154 x60) (or (= x154 x30) (= x90 x154))))))) (or (or (= x79 x130) (or (= x60 x130) (or (= x90 x130) (= x30 x130)))) (= x130 x138))))) (and (or (or (or (= x60 x122) (or (= x30 x122) (= x122 x90))) (= x122 x79)) (= x138 x122)) (and (or (= x95 x138) (or (= x79 x95) (or (= x95 x60) (or (= x90 x95) (= x30 x95))))) (and (or (or (= x79 x47) (or (or (= x47 x90) (= x30 x47)) (= x47 x60))) (= x47 x138)) (and (or (or (or (or (= x118 x90) (= x118 x30)) (= x60 x118)) (= x118 x79)) (= x138 x118)) (or (= x138 x132) (or (or (= x132 x60) (or (= x90 x132) (= x132 x30))) (= x79 x132)))))))) (and (and (and (and (or (or (= x79 x61) (or (= x60 x61) (or (= x61 x30) (= x90 x61)))) (= x61 x138)) (or (or (= x79 x106) (or (= x106 x60) (or (= x106 x30) (= x106 x90)))) (= x138 x106))) (or (= x159 x138) (or (= x159 x79) (or (or (= x159 x90) (= x30 x159)) (= x60 x159))))) (or (= x109 x138) (or (or (or (= x109 x90) (= x109 x30)) (= x60 x109)) (= x109 x79)))) (or (= x113 x138) (or (or (= x60 x113) (or (= x113 x30) (= x90 x113))) (= x79 x113))))) (and (and (and (or (or (or (= x60 x140) (or (= x90 x140) (= x30 x140))) (= x79 x140)) (= x138 x140)) (and (or (or (= x79 x18) (or (= x18 x60) (or (= x18 x30) (= x18 x90)))) (= x138 x18)) (or (or (= x79 x74) (or (or (= x74 x30) (= x90 x74)) (= x60 x74))) (= x138 x74)))) (or (= x21 x138) (or (= x79 x21) (or (= x21 x60) (or (= x90 x21) (= x30 x21)))))) (or (= x51 x138) (or (or (or (= x90 x51) (= x51 x30)) (= x51 x60)) (= x79 x51)))))))
(check-sat)
(exit)
